c num_vars = 5
c num_clauses = 5
c clause_len = 4
c num_blocks = 4
c block_sizes[0] = 1
c block_sizes[1] = 1
c block_sizes[2] = 2
c block_sizes[3] = 1
p cnf 5 5
a 1 0
e 2 0
a 3 4 0
e 5 0
-1 2 3 -5 0
-1 -2 3 4 0
1 2 4 5 0
-1 4 2 3 0
-1 -2 3 4 0